(declare-sort |c#ptr| 1)
(declare-sort |c#heap| 0)
(declare-var |c#heap| |c#heap|)
(declare-fun |c#bitxor| (Int Int) Int)
(declare-fun |c#bitand| (Int Int) Int)
(declare-fun |c#bitor| (Int Int) Int)
(define-proc
  main
  ()
  ((|c#result| Int))
  ((x Int))
  (sequence
    (assign ((x 0)))
    (while (not (= 1 0)) (assert (= x 0)))
    (assert (not (= x 0)))))
